32	8
11	18	8	13	19	12	14	13
0	0	0	0	0	0	0	0	0	2	2	3
5	11	18	8	13	19	12	14	13	2	5	6
9	11	18	8	13	19	12	14	13	2	4	6
6	0	0	0	0	0	0	0	0	2	5	10
2	11	18	8	13	19	12	14	9	2	7	9
8	0	0	0	0	0	0	0	4	3	7	9	10
10	11	18	8	13	19	12	14	9	1	8
6	11	18	8	13	19	12	14	9	1	11
10	11	18	8	13	19	12	14	13	1	11
9	0	0	0	0	0	0	0	4	2	11	16
4	11	18	8	13	19	12	14	9	2	12	15
10	11	18	8	13	19	12	14	9	3	13	18	19
4	4	12	3	6	6	1	3	2	1	14
1	4	12	3	6	6	1	3	5	2	17	20
5	0	0	0	0	0	0	0	1	6	18	19	21	25	27	29
9	0	0	0	0	0	0	0	4	2	17	19
10	7	7	5	7	13	7	11	12	5	21	25	27	29	30
3	4	1	3	1	6	5	3	7	4	22	24	26	30
9	7	6	5	7	13	11	11	8	4	22	24	26	30
8	4	11	3	6	6	5	3	1	4	23	25	26	27
1	4	6	3	7	13	7	11	6	3	22	24	26
6	7	1	5	7	3	7	8	8	1	23
2	3	2	2	1	5	6	6	4	1	28
10	4	6	3	6	13	5	6	4	1	28
5	4	5	3	0	3	1	3	1	1	28
6	3	4	2	6	4	2	5	5	1	32
9	0	12	0	0	6	1	1	0	1	28
3	7	14	5	7	9	8	9	8	1	31
1	3	6	2	6	1	1	0	5	1	31
5	4	1	3	6	10	4	3	4	1	31
2	8	14	6	7	15	10	9	8	1	32
0	0	0	0	0	0	0	0	0	0
